p cnf 14 24
14 -12 -5 0
-14 12 2 0
14 11 5 0
14 -10 -9 0
14 6 -1 0
-14 4 3 0
-14 2 1 0
13 -11 -6 0
-13 3 2 0
12 10 -9 0
12 -9 4 0
12 -8 6 0
-12 -8 6 0
12 -6 2 0
-12 4 -3 0
-12 -2 1 0
-11 -10 6 0
11 -9 1 0
-10 -7 6 0
9 5 3 0
-8 7 -5 0
-7 -5 4 0
5 4 -2 0
4 -2 1 0
